98 100
19 16 1
1 8 1
26 6 1
31 6 1
2 16 1
4 21 2
10 16 1
5 9 1
19 20 1
26 10 1
10 22 1
2 5 1
9 24 1
17 19 1
21 8 1
29 23 1
26 1 1
8 32 1
17 6 1
2 2 1
31 4 1
6 9 1
16 23 1
22 32 1
32 31 1
31 28 1
14 9 1
25 3 1
13 18 1
9 5 1
21 29 1
32 28 1
6 21 1
18 5 1
19 22 1
17 35 2
7 35 1
5 7 1
19 15 1
33 33 1
8 11 1
22 14 1
25 16 1
13 35 1
28 33 1
20 18 1
20 9 1
35 2 1
16 5 1
28 2 1
10 25 1
15 11 1
4 15 1
22 33 1
15 2 1
17 12 1
35 25 1
18 12 1
32 29 1
16 1 1
23 7 1
15 30 1
34 33 1
30 21 1
34 16 1
18 13 1
4 20 1
20 22 1
5 14 1
14 4 1
8 12 1
29 34 1
27 7 1
33 21 1
20 3 1
7 29 1
26 15 1
13 27 1
24 2 1
20 29 1
8 35 1
8 28 1
16 27 1
5 28 1
29 4 1
15 10 1
4 6 1
15 12 1
5 3 1
8 15 1
18 34 1
9 20 1
35 15 1
22 5 1
14 21 1
29 35 1
29 31 1
21 7 1
100 100 
100 100 
100 100 
100 100 
100 100 
100 100 
100 100 
100 100 
100 100 
100 100 
100 100 
100 100 
100 100 
100 100 
100 100 
100 100 
100 100 
100 100 
100 100 
100 100 
100 100 
100 100 
100 100 
100 100 
100 100 
100 100 
100 100 
100 100 
100 100 
100 100 
100 100 
100 100 
100 100 
100 100 
100 100 
100 100 
100 100 
100 100 
100 100 
100 100 
100 100 
100 100 
100 100 
100 100 
100 100 
100 100 
100 100 
100 100 
100 100 
100 100 
100 100 
100 100 
100 100 
100 100 
100 100 
100 100 
100 100 
100 100 
100 100 
100 100 
100 100 
100 100 
100 100 
100 100 
100 100 
100 100 
100 100 
100 100 
100 100 
100 100 
100 100 
100 100 
100 100 
100 100 
100 100 
100 100 
100 100 
100 100 
100 100 
100 100 
100 100 
100 100 
100 100 
100 100 
100 100 
100 100 
100 100 
100 100 
100 100 
100 100 
100 100 
100 100 
100 100 
100 100 
100 100 
100 100 
100 100 
100 100 
100 100 
100 100 
